44
331

[3.84 0.48 3.42 1.66 1.65 2.8 1.81 1.88 2.34 3.26 4.42 2.1 1.97 0.52 1.0 4.4 4.34 4.05 2.97 0.98 2.93 0.64 2.11 4.02 1.19 3.06 3.97 0.68 2.59 0.73 0.79 0.48 0.93 2.09 3.65 4.56 3.7 1.74 2.37 0.27 3.27 0.33 4.06 3.34 3.83 3.27 3.21 4.28 4.05 0.44 2.1 2.27 0.5 0.71 4.52 1.25 4.12 0.76 0.61 1.46 1.41 1.94 1.52 2.61 0.44 3.67 1.24 4.19 4.15 0.07 3.92 3.11]

[77 11 77 60 43 49 76 61 89 51 39 58 30 7 29 17 74 56 11 28 57 88 80 100 97 84 41 51 22 96 26 29 54 95 9 99 18 64 3 51 6 3 1 48 85 69 96 77 2 2 33 44 67 97 9 49 91 83 16 46 83 18 85 41 5 93 82 84 57 5 54 6]
